NAME : rc_205.3.8250583.tour
COMMENT : Length = 8250583
COMMENT : Found by LKH [Keld Helsgaun] Tue May  2 05:21:40 2017
TYPE : TOUR
DIMENSION : 35
TOUR_SECTION
1
24
20
30
23
29
34
31
9
10
17
25
27
28
7
6
3
8
16
5
4
2
21
33
19
15
14
13
32
18
11
26
12
22
35
-1
EOF
